
<<< setup

Version identifier: 22.1.1.0 | 2022-11-27 | 9160aff4d
Tried aggregator 1 time.
LP Presolve eliminated 1439 rows and 1407 columns.
Reduced LP has 10 rows, 18 columns, and 30 nonzeros.
Presolve time = 0.00 sec. (2.25 ticks)

Iteration log . . .
Iteration:     1   Dual infeasibility =            71.092087
Iteration:    10   Dual objective     =           357.801727
main returns 0

<<< main


<<< done

